(set-logic ALL)
(declare-fun var0 () String)
(assert (str.in_re var0 (re.++ (re.+ (re.* (str.to_re "0"))) (re.++ (re.+ (re.+ (str.to_re "111"))) (re.++ (re.+ (re.* (str.to_re "22"))) (re.++ (re.union (re.+ (str.to_re "3")) (re.+ (str.to_re "444"))) (re.++ (re.union (re.union (str.to_re "555") (str.to_re "6")) (re.union (str.to_re "7") (str.to_re "8"))) (re.++ (re.* (re.union (str.to_re "99") (str.to_re "aaa"))) (re.* (re.+ (str.to_re "bb")))))))))))
(check-sat)